System: PuO2
ISTART = 0
ICHARG = 2

ENCUT = 600
ISMEAR = 0
SIGMA = 0.01 
EDIFF = 1E-6
KPAR = 4
NPAR = 2
NELM = 120

LDAU = .TRUE.
LDAUTYPE = 2
LDAUL = 3 -1
LDAUU = 3.7 0.0
LDAUJ = 0.0 0.0
LMAXMIX = 6

LSORBIT = .TRUE.
ISPIN = 1
MAGMOM = 1 1 1  -1 -1 1  -1 1 -1  1 -1 -1  0 0 0  0 0 0  0 0 0  0 0 0  0 0 0  0 0 0  0 0 0  0 0 0

IBRION = -1
ISIF = 0 
NSW = 0
GGA = PS
NWRITE = 3
NEDOS = 301
LORBIT = 11
