System
 1.0
 5.402197893981154 0.0 0.0
 0.0 5.402197893981154 0.0
 0.0 0.0 5.402197893981156
 O  Pu 
 4  8 
Direct
0.24011523188464026 0.25550711526837216 0.23656482511013655
0.7347916677437155 0.2361390724729438 0.2411740601823545
0.2723095356501081 0.7534007601858872 0.2591260126845111
0.76911658579357 0.7404671355073381 0.24391738804461435
0.2571305285849726 0.24738264429167953 0.7466238888608306
0.7636595476438117 0.24675327082800316 0.7381699223649192
0.22642265685283447 0.7496633924707031 0.7534896129101706
0.7261822089803076 0.7430938441689756 0.7476068221232193
-0.006222078616825521 0.007863632697967247 0.00042888284462540315
0.507317586986857 0.49067065887261757 -0.003560735903701624
0.49538355545649987 0.0005147904713188025 0.5056515984065371
0.001599656319445107 0.5001649426820175 0.49706990611946783
